p cnf 12 33
1 2 3 4  0
5 6 7 8  0
9 10 11 12  0
-1 -5 0
-1 -9 0
-5 -9 0
-2 -6 0
-2 -10 0
-6 -10 0
-3 -7 0
-3 -11 0
-7 -11 0
-4 -8 0
-4 -12 0
-8 -12 0
-1 -3 0
-1 -7 0
-1 -11 0
-5 -3 0
-5 -7 0
-5 -11 0
-9 -3 0
-9 -7 0
-9 -11 0
-1 -4 0
-1 -8 0
-1 -12 0
-5 -4 0
-5 -8 0
-5 -12 0
-9 -4 0
-9 -8 0
-9 -12 0
